25
2 1 3
3 2 2
4 3 1
5 0 3
5 1 5
5 2 4
5 3 5
5 4 4
6 2 5
6 3 2
6 4 4
7 1 1
7 3 5
7 4 4
8 2 2
8 4 2
8 6 1
9 0 2
9 2 4
9 3 1
9 4 1
9 5 5
9 6 1
9 8 4
10 2 5
10 4 4
10 6 3
10 8 2
10 9 4
11 1 3
11 2 4
11 3 3
11 5 3
11 6 2
12 1 1
12 6 5
12 7 5
12 9 3
12 11 3
13 0 3
13 1 4
13 9 1
13 10 4
13 11 5
13 12 1
14 0 5
14 1 3
14 8 2
14 9 1
14 11 1
15 1 4
15 2 5
15 3 5
15 5 4
15 6 1
15 8 1
15 10 4
15 11 3
15 13 2
16 1 3
16 5 4
16 6 4
16 7 4
16 8 5
16 9 1
16 15 1
17 0 4
17 2 1
17 3 1
17 5 4
17 6 1
17 8 1
17 10 4
17 11 4
17 12 2
17 14 5
17 16 1
18 0 2
18 1 4
18 6 3
18 7 2
18 9 4
18 11 5
18 12 1
18 13 3
18 14 2
19 2 5
19 4 1
19 6 2
19 7 3
19 8 4
19 10 4
19 11 3
19 13 1
19 16 1
19 17 5
19 18 2
20 0 1
20 1 5
20 4 2
20 6 4
20 8 5
20 9 1
20 10 2
20 13 1
20 15 2
20 16 4
20 17 5
20 18 4
21 0 3
21 3 1
21 5 3
21 11 3
21 12 5
21 14 5
21 18 4
21 20 5
22 0 1
22 2 2
22 4 4
22 7 5
22 9 4
22 10 5
22 11 5
22 13 2
22 14 5
22 15 5
22 17 4
22 19 1
22 21 5
23 0 4
23 3 2
23 4 5
23 7 3
23 10 5
23 12 3
23 16 3
23 19 4
23 20 3
24 0 1
24 2 3
24 3 3
24 4 5
24 5 5
24 6 3
24 9 1
24 10 2
24 11 2
24 12 4
24 18 4
24 20 2
